(declare-const x0 Bool)
(declare-const x1 Bool)
(declare-const x2 Bool)
(declare-const x3 Bool)
(declare-const x4 Bool)
(declare-const x5 Bool)
(declare-const x6 Bool)
(assert (and (and false (and x2 false)) (and (or x4 x3) (or true (or false x2)))))
(assert (and (or x5 (and true (or (or false x5) (and true x0)))) true))
(assert x6)
(assert (or true (or x4 x3)))
(assert (= x6 (= x1 x4)))
(assert (or (and x3 x1) (= false (or false x0))))
(assert (or (or (or false x1) (= (or x3 x4) (and false false))) true))
(assert (and (or (= (or false x0) (or x1 x4)) (and (= x2 (or x3 x1)) (= false true))) (and (and (and false false) (and x5 false)) (= true (= false true)))))
(assert (and (= (and false false) (and true true)) x0))
(assert (= (= false x3) (and (= false false) (and x3 false))))
(check-sat)
